100
100
384 12
778 16
794 11
387 18
650 22
363 3
691 10
764 2
541 2
173 12
212 19
568 5
783 6
863 24
68 11
930 3
23 9
70 18
394 7
12 18
230 24
422 20
785 13
199 25
316 21
414 2
92 6
957 24
863 21
997 7
306 1
85 3
337 6
847 5
314 8
125 21
583 21
815 18
435 15
44 1
88 9
277 4
789 10
404 2
755 25
933 11
677 19
740 13
227 12
95 15
796 21
435 4
468 2
98 3
318 18
653 7
302 6
287 17
866 15
445 20
441 5
32 18
98 22
482 1
710 3
568 7
498 4
587 16
307 9
220 25
529 22
733 5
504 20
271 19
709 16
341 25
797 24
619 21
847 2
922 6
380 14
765 4
842 1
194 1
35 15
125 15
988 7
744 17
228 16
860 12
433 2
438 4
276 8
475 22
859 21
30 13
236 19
819 4
144 12
929 5
